10
49 40 21 10 71 14 48 18 4
38 58 50 45 22 32
36 53 67 66 70 76 72 54 9
42 51 77 64 33 15 41 55 56 69 65
3 39 60 46 25 19 47 26 35
74 29 17 31 20 75 57
13 44 5 27 59 78 68 16 43 61
62 23 12 30 6 24 8
1 63 11 34 2 37
73 7 52 28 79
